(set-logic QF_S)
(declare-fun var0 () String)
(assert (str.in.re var0 (re.++ (re.* (re.+ (str.to.re "00"))) (re.++ (re.* (re.union (str.to.re "1") (str.to.re "222"))) (re.++ (re.+ (re.+ (str.to.re "333"))) (re.++ (re.* (re.union (str.to.re "4") (str.to.re "55"))) (re.++ (re.* (re.+ (str.to.re "66"))) (re.++ (re.+ (re.+ (str.to.re "777"))) (re.++ (re.union (re.union (str.to.re "8") (str.to.re "9")) (re.+ (str.to.re "aaa"))) (re.++ (re.+ (re.+ (str.to.re "bbb"))) (re.++ (re.+ (re.union (str.to.re "ccc") (str.to.re "ddd"))) (re.* (re.* (str.to.re "eee"))))))))))))))
(assert (<= 251 (str.len var0)))
(check-sat)